results/filo/x-long/X-n157-k13.vrp_seed-4.vrp.sol
Route #1: 15 147 118 75 20 68 36 93 99 69 122 38
Route #2: 12 60 109 114 29 58 39 10 134 52 107 18
Route #3: 49 14 120 26 128 142 62 97 87 65 103 16
Route #4: 37 116 19 46 145 127 104 130 124 44 27 101
Route #5: 71 149 8 150 156 24 43 141 64 63 13 148
Route #6: 47 5 153 76 136 112 89 81 119 2 57 88
Route #7: 72 48 33 84 79 74 30 22 155 25 138 34
Route #8: 126 1 117 9 108 40 80 146 78 125 139 70
Route #9: 131 133 50 154 98 123 53 144 85 140 31 23
Route #10: 151 113 82 11 77 45 83 90 51 100 91 129
Route #11: 17 67 4 35 6 115 55 95 105 152 56 61
Route #12: 92 137 7 28 66 94 86 111 132 102 96 59
Route #13: 41 110 54 121 21 135 73 106 3 42 32 143
Cost 16876.000000